LAMMPS (30 Oct 2019)
# pour two types of particles (cohesive and non-cohesive) on flat wall

variable   	name string pour_two_types

atom_style	sphere
units		lj

###############################################
# Geometry-related parameters
###############################################

variable	boxx equal 20
variable	boxy equal 20
variable	boxz equal 30

variable	xc1 equal 0.3*${boxx}
variable	xc1 equal 0.3*20
variable	xc2 equal 0.7*${boxx}
variable	xc2 equal 0.7*20
variable	yc equal 0.5*${boxy}
variable	yc equal 0.5*20

###############################################
# Particle-related parameters
###############################################
variable	rlo equal 0.25
variable	rhi equal 0.5
variable	dlo equal 2.0*${rlo}
variable	dlo equal 2.0*0.25
variable	dhi equal 2.0*${rhi}
variable	dhi equal 2.0*0.5

variable	dens equal 1.0

variable skin equal 0.3*${rhi}
variable skin equal 0.3*0.5

#############
processors	* * 1
region 		boxreg block 0 ${boxx} 0 ${boxy} 0 ${boxz}
region 		boxreg block 0 20 0 ${boxy} 0 ${boxz}
region 		boxreg block 0 20 0 20 0 ${boxz}
region 		boxreg block 0 20 0 20 0 30
create_box	2 boxreg
Created orthogonal box = (0 0 0) to (20 20 30)
  1 by 1 by 1 MPI processor grid
change_box	all boundary p p f

comm_modify 	vel yes

region		insreg1 cylinder z ${xc1} ${yc} 5 15 ${boxz}
region		insreg1 cylinder z 6 ${yc} 5 15 ${boxz}
region		insreg1 cylinder z 6 10 5 15 ${boxz}
region		insreg1 cylinder z 6 10 5 15 30
region		insreg2 cylinder z ${xc2} ${yc} 5 15 ${boxz}
region		insreg2 cylinder z 14 ${yc} 5 15 ${boxz}
region		insreg2 cylinder z 14 10 5 15 ${boxz}
region		insreg2 cylinder z 14 10 5 15 30

fix		1 all nve/sphere
fix		grav all gravity 10.0 vector 0 0 -1
fix		ins1 all pour 1500 1 3123 region insreg1 diam range ${dlo} ${dhi} dens ${dens} ${dens}
fix		ins1 all pour 1500 1 3123 region insreg1 diam range 0.5 ${dhi} dens ${dens} ${dens}
fix		ins1 all pour 1500 1 3123 region insreg1 diam range 0.5 1 dens ${dens} ${dens}
fix		ins1 all pour 1500 1 3123 region insreg1 diam range 0.5 1 dens 1 ${dens}
fix		ins1 all pour 1500 1 3123 region insreg1 diam range 0.5 1 dens 1 1
Particle insertion: 562 every 346 steps, 1500 by step 693
fix		ins2 all pour 1500 2 3123 region insreg2 diam range ${dlo} ${dhi} dens ${dens} ${dens}
fix		ins2 all pour 1500 2 3123 region insreg2 diam range 0.5 ${dhi} dens ${dens} ${dens}
fix		ins2 all pour 1500 2 3123 region insreg2 diam range 0.5 1 dens ${dens} ${dens}
fix		ins2 all pour 1500 2 3123 region insreg2 diam range 0.5 1 dens 1 ${dens}
fix		ins2 all pour 1500 2 3123 region insreg2 diam range 0.5 1 dens 1 1
Particle insertion: 562 every 346 steps, 1500 by step 693

comm_modify	vel yes

neighbor	${skin} bin
neighbor	0.15 bin
neigh_modify	delay 0 every 1 check yes

pair_style	granular
pair_coeff 	1 * jkr 1000.0 50.0 0.3 10 tangential mindlin 800.0 1.0 0.5 rolling sds 500.0 200.0 0.5 twisting marshall
pair_coeff 	2 2 hertz 200.0 20.0 tangential linear_history 300.0 1.0 0.1 rolling sds 200.0 100.0 0.1 twisting marshall

fix		3 all wall/gran granular hertz/material 1e5 1e3 0.3 tangential mindlin NULL 1.0 0.5 zplane 0 NULL

thermo_style	custom step cpu atoms ke
thermo_modify	lost warn
thermo		100

timestep	0.001

#dump		1 all custom 100 ${name}.dump id type radius mass x y z

run		5000
Neighbor list info ...
  update every 1 steps, delay 0 steps, check yes
  max neighbors/atom: 2000, page size: 100000
  master list distance cutoff = 1.15
  ghost atom cutoff = 1.15
  binsize = 0.575, bins = 35 35 53
  1 neighbor lists, perpetual/occasional/extra = 1 0 0
  (1) pair granular, perpetual
      attributes: half, newton on, size, history
      pair build: half/size/bin/newton
      stencil: half/bin/3d/newton
      bin: standard
Per MPI rank memory allocation (min/avg/max) = 12.22 | 12.22 | 12.22 Mbytes
Step CPU Atoms KinEng 
       0            0        0           -0 
     100  0.054951191      926           -0 
     200  0.062669992      926           -0 
     300  0.070611238      926           -0 
     400    0.1383574     1498           -0 
     500   0.15216398     1498           -0 
     600   0.16546106     1498           -0 
     700   0.27943826     2275           -0 
     800   0.30228353     2275           -0 
     900   0.32468224     2275           -0 
    1000   0.34752631     2275           -0 
    1100   0.46841288     2954           -0 
    1200   0.50414968     2954           -0 
    1300   0.54418731     2954           -0 
    1400   0.59079146     3000           -0 
    1500   0.64584923     3000           -0 
    1600   0.70967889     3000           -0 
    1700    0.7840836     3000           -0 
    1800   0.87654305     3000           -0 
    1900   0.99300456     3000           -0 
    2000      1.12538     3000           -0 
    2100    1.2603624     3000           -0 
    2200    1.4106894     3000           -0 
    2300    1.5785885     3000           -0 
    2400    1.7649481     3000           -0 
    2500    1.9656448     3000           -0 
    2600    2.1741602     3000           -0 
    2700    2.3905566     3000           -0 
    2800    2.6136713     3000           -0 
    2900    2.8418958     3000           -0 
    3000    3.0769644     3000           -0 
    3100    3.3068578     3000           -0 
    3200    3.5409665     3000           -0 
    3300     3.778147     3000           -0 
    3400    4.0174248     3000           -0 
    3500    4.2548709     3000           -0 
    3600    4.4908061     3000           -0 
    3700    4.7265029     3000           -0 
    3800    4.9472909     3000           -0 
    3900    5.1663961     3000           -0 
    4000    5.3845286     3000           -0 
    4100    5.6016014     3000           -0 
    4200    5.8173702     3000           -0 
    4300    6.0312834     3000           -0 
    4400     6.248821     3000           -0 
    4500    6.4682603     3000           -0 
    4600     6.691309     3000           -0 
    4700    6.9151318     3000           -0 
    4800     7.141845     3000           -0 
    4900    7.3733118     3000           -0 
    5000    7.6056793     3000           -0 
Loop time of 7.60569 on 1 procs for 5000 steps with 3000 atoms

Performance: 56799.582 tau/day, 657.403 timesteps/s
99.7% CPU use with 1 MPI tasks x no OpenMP threads

MPI task timing breakdown:
Section |  min time  |  avg time  |  max time  |%varavg| %total
---------------------------------------------------------------
Pair    | 5.3367     | 5.3367     | 5.3367     |   0.0 | 70.17
Neigh   | 1.2278     | 1.2278     | 1.2278     |   0.0 | 16.14
Comm    | 0.044188   | 0.044188   | 0.044188   |   0.0 |  0.58
Output  | 0.00079274 | 0.00079274 | 0.00079274 |   0.0 |  0.01
Modify  | 0.9468     | 0.9468     | 0.9468     |   0.0 | 12.45
Other   |            | 0.04939    |            |       |  0.65

Nlocal:    3000 ave 3000 max 3000 min
Histogram: 1 0 0 0 0 0 0 0 0 0
Nghost:    468 ave 468 max 468 min
Histogram: 1 0 0 0 0 0 0 0 0 0
Neighs:    16268 ave 16268 max 16268 min
Histogram: 1 0 0 0 0 0 0 0 0 0

Total # of neighbors = 16268
Ave neighs/atom = 5.42267
Neighbor list builds = 1167
Dangerous builds = 0
Total wall time: 0:00:07
