LAMMPS (30 Oct 2019)
# pour two types of particles (cohesive and non-cohesive) on flat wall

variable   	name string pour_two_types

atom_style	sphere
units		lj

###############################################
# Geometry-related parameters
###############################################

variable	boxx equal 20
variable	boxy equal 20
variable	boxz equal 30

variable	xc1 equal 0.3*${boxx}
variable	xc1 equal 0.3*20
variable	xc2 equal 0.7*${boxx}
variable	xc2 equal 0.7*20
variable	yc equal 0.5*${boxy}
variable	yc equal 0.5*20

###############################################
# Particle-related parameters
###############################################
variable	rlo equal 0.25
variable	rhi equal 0.5
variable	dlo equal 2.0*${rlo}
variable	dlo equal 2.0*0.25
variable	dhi equal 2.0*${rhi}
variable	dhi equal 2.0*0.5

variable	dens equal 1.0

variable skin equal 0.3*${rhi}
variable skin equal 0.3*0.5

#############
processors	* * 1
region 		boxreg block 0 ${boxx} 0 ${boxy} 0 ${boxz}
region 		boxreg block 0 20 0 ${boxy} 0 ${boxz}
region 		boxreg block 0 20 0 20 0 ${boxz}
region 		boxreg block 0 20 0 20 0 30
create_box	2 boxreg
Created orthogonal box = (0 0 0) to (20 20 30)
  2 by 2 by 1 MPI processor grid
change_box	all boundary p p f

comm_modify 	vel yes

region		insreg1 cylinder z ${xc1} ${yc} 5 15 ${boxz}
region		insreg1 cylinder z 6 ${yc} 5 15 ${boxz}
region		insreg1 cylinder z 6 10 5 15 ${boxz}
region		insreg1 cylinder z 6 10 5 15 30
region		insreg2 cylinder z ${xc2} ${yc} 5 15 ${boxz}
region		insreg2 cylinder z 14 ${yc} 5 15 ${boxz}
region		insreg2 cylinder z 14 10 5 15 ${boxz}
region		insreg2 cylinder z 14 10 5 15 30

fix		1 all nve/sphere
fix		grav all gravity 10.0 vector 0 0 -1
fix		ins1 all pour 1500 1 3123 region insreg1 diam range ${dlo} ${dhi} dens ${dens} ${dens}
fix		ins1 all pour 1500 1 3123 region insreg1 diam range 0.5 ${dhi} dens ${dens} ${dens}
fix		ins1 all pour 1500 1 3123 region insreg1 diam range 0.5 1 dens ${dens} ${dens}
fix		ins1 all pour 1500 1 3123 region insreg1 diam range 0.5 1 dens 1 ${dens}
fix		ins1 all pour 1500 1 3123 region insreg1 diam range 0.5 1 dens 1 1
Particle insertion: 562 every 346 steps, 1500 by step 693
fix		ins2 all pour 1500 2 3123 region insreg2 diam range ${dlo} ${dhi} dens ${dens} ${dens}
fix		ins2 all pour 1500 2 3123 region insreg2 diam range 0.5 ${dhi} dens ${dens} ${dens}
fix		ins2 all pour 1500 2 3123 region insreg2 diam range 0.5 1 dens ${dens} ${dens}
fix		ins2 all pour 1500 2 3123 region insreg2 diam range 0.5 1 dens 1 ${dens}
fix		ins2 all pour 1500 2 3123 region insreg2 diam range 0.5 1 dens 1 1
Particle insertion: 562 every 346 steps, 1500 by step 693

comm_modify	vel yes

neighbor	${skin} bin
neighbor	0.15 bin
neigh_modify	delay 0 every 1 check yes

pair_style	granular
pair_coeff 	1 * jkr 1000.0 50.0 0.3 10 tangential mindlin 800.0 1.0 0.5 rolling sds 500.0 200.0 0.5 twisting marshall
pair_coeff 	2 2 hertz 200.0 20.0 tangential linear_history 300.0 1.0 0.1 rolling sds 200.0 100.0 0.1 twisting marshall

fix		3 all wall/gran granular hertz/material 1e5 1e3 0.3 tangential mindlin NULL 1.0 0.5 zplane 0 NULL

thermo_style	custom step cpu atoms ke
thermo_modify	lost warn
thermo		100

timestep	0.001

#dump		1 all custom 100 ${name}.dump id type radius mass x y z

run		5000
Neighbor list info ...
  update every 1 steps, delay 0 steps, check yes
  max neighbors/atom: 2000, page size: 100000
  master list distance cutoff = 1.15
  ghost atom cutoff = 1.15
  binsize = 0.575, bins = 35 35 53
  1 neighbor lists, perpetual/occasional/extra = 1 0 0
  (1) pair granular, perpetual
      attributes: half, newton on, size, history
      pair build: half/size/bin/newton
      stencil: half/bin/3d/newton
      bin: standard
Per MPI rank memory allocation (min/avg/max) = 11.98 | 11.98 | 11.98 Mbytes
Step CPU Atoms KinEng 
       0            0        0           -0 
     100  0.047319651      926           -0 
     200  0.050737858      926           -0 
     300  0.054202318      926           -0 
     400   0.13303185     1498           -0 
     500   0.13860369     1498           -0 
     600   0.14413691     1498           -0 
     700   0.25975156     2275           -0 
     800    0.2705934     2275           -0 
     900   0.27887583     2275           -0 
    1000   0.28975582     2275           -0 
    1100   0.38346291     2954           -0 
    1200   0.39650369     2954           -0 
    1300   0.41334939     2954           -0 
    1400   0.43391323     3000           -0 
    1500   0.45428824     3000           -0 
    1600   0.48004532     3000           -0 
    1700   0.50943947     3000           -0 
    1800   0.54450297     3000           -0 
    1900   0.58751321     3000           -0 
    2000   0.63691711     3000           -0 
    2100   0.68806291     3000           -0 
    2200   0.74676013     3000           -0 
    2300   0.80941629     3000           -0 
    2400   0.88102007     3000           -0 
    2500   0.95643902     3000           -0 
    2600    1.0358148     3000           -0 
    2700    1.1182449     3000           -0 
    2800    1.2029355     3000           -0 
    2900    1.2894766     3000           -0 
    3000    1.3801315     3000           -0 
    3100    1.4713318     3000           -0 
    3200    1.5645208     3000           -0 
    3300    1.6581457     3000           -0 
    3400    1.7520931     3000           -0 
    3500    1.8472569     3000           -0 
    3600    1.9435387     3000           -0 
    3700     2.039598     3000           -0 
    3800    2.1312745     3000           -0 
    3900    2.2226512     3000           -0 
    4000     2.313072     3000           -0 
    4100     2.404628     3000           -0 
    4200     2.495954     3000           -0 
    4300     2.586591     3000           -0 
    4400     2.678395     3000           -0 
    4500    2.7711048     3000           -0 
    4600    2.8671308     3000           -0 
    4700    2.9623895     3000           -0 
    4800    3.0577834     3000           -0 
    4900    3.1559253     3000           -0 
    5000    3.2550185     3000           -0 
Loop time of 3.25511 on 4 procs for 5000 steps with 3000 atoms

Performance: 132714.500 tau/day, 1536.047 timesteps/s
96.9% CPU use with 4 MPI tasks x no OpenMP threads

MPI task timing breakdown:
Section |  min time  |  avg time  |  max time  |%varavg| %total
---------------------------------------------------------------
Pair    | 0.61584    | 1.3522     | 2.1334     |  62.4 | 41.54
Neigh   | 0.26295    | 0.32325    | 0.39085    |  10.5 |  9.93
Comm    | 0.14606    | 1.0169     | 1.8189     |  79.2 | 31.24
Output  | 0.00053978 | 0.0013039  | 0.0034053  |   3.4 |  0.04
Modify  | 0.48714    | 0.50768    | 0.52653    |   2.6 | 15.60
Other   |            | 0.05368    |            |       |  1.65

Nlocal:    750 ave 1015 max 485 min
Histogram: 2 0 0 0 0 0 0 0 0 2
Nghost:    420.5 ave 487 max 367 min
Histogram: 2 0 0 0 0 0 0 1 0 1
Neighs:    4071.5 ave 6096 max 2138 min
Histogram: 2 0 0 0 0 0 0 0 0 2

Total # of neighbors = 16286
Ave neighs/atom = 5.42867
Neighbor list builds = 1172
Dangerous builds = 0
Total wall time: 0:00:03
